La Br 
 1.0000000000000000
    12.4854198453642908    0.0000000000000000    0.0000000000000000
     6.2427099226821454   10.8126907629998499    0.0000000000000000
     0.0000000000000000    0.0000000000000000   60.0000000000000000
La Br
  18  18
Cartesian
  2.0809033075607006  1.2014100847777696 11.1445956072318069
  6.2427099226821312  1.2014100847777696 11.1445956072318069
  4.1618066151214448  2.4028201695555134 14.1837418265599133
  4.1618066151214155  4.8056403391110525 11.1445956072318069
 10.4045165378035627  1.2014100847777696 11.1445956072318069
  8.3236132302428754  2.4028201695555134 14.1837418265599133
  8.3236132302428452  4.8056403391110525 11.1445956072318069
  6.2427099226821596  6.0070504238887965 14.1837418265599133
  6.2427099226821312  8.4098705934443352 11.1445956072318069
 12.4854198453643050  2.4028201695555134 14.1837418265599133
 12.4854198453642766  4.8056403391110525 11.1445956072318069
 10.4045165378035893  6.0070504238887965 14.1837418265599133
 10.4045165378035591  8.4098705934443352 11.1445956072318069
  8.3236132302428736  9.6112806782220801 14.1837418265599133
 14.5663231529250208  6.0070504238887965 14.1837418265599133
 14.5663231529249906  8.4098705934443352 11.1445956072318069
 12.4854198453643050  9.6112806782220801 14.1837418265599133
 16.6472264604857365  9.6112806782220801 14.1837418265599133
  0.0000000000000000  0.0000000000000000  9.1613813199269636
  0.0000000000000000  0.0000000000000000 16.1668309335634284
  4.1618066151214306  0.0000000000000000  9.1613813199269636
  4.1618066151214306  0.0000000000000000 16.1668309335634284
  2.0809033075607153  3.6042302543332831  9.1613813199269636
  2.0809033075607153  3.6042302543332831 16.1668309335634284
  8.3236132302428611  0.0000000000000000  9.1613813199269636
  8.3236132302428611  0.0000000000000000 16.1668309335634284
  6.2427099226821454  3.6042302543332831  9.1613813199269636
  6.2427099226821454  3.6042302543332831 16.1668309335634284
  4.1618066151214306  7.2084605086665663  9.1613813199269636
  4.1618066151214306  7.2084605086665663 16.1668309335634284
 10.4045165378035751  3.6042302543332831  9.1613813199269636
 10.4045165378035751  3.6042302543332831 16.1668309335634284
  8.3236132302428594  7.2084605086665663  9.1613813199269636
  8.3236132302428594  7.2084605086665663 16.1668309335634284
 12.4854198453642908  7.2084605086665663  9.1613813199269636
 12.4854198453642908  7.2084605086665663 16.1668309335634284
