Ca Ge  O 
 1.0000000000000000
     6.8054162800000002    0.0000000000000000    0.0000000000000000
     3.4027081400000010    5.8936633818081923    0.0000000000000000
     3.4027081400000010    1.9645544606027312    5.5565991244098836
 Ca  Ge  O  
   6   2   1
Cartesian
  5.0800867284455613  4.9252284022362334  1.3695738823871748
  8.5307458315544409  4.9252284022362334  1.3695738823871748
  6.8054162799999993  1.9368699591439174  1.3695738823871748
  8.5307458315544409  2.9329894401746897  4.1870252420227088
  5.0800867284455604  2.9329894401746897  4.1870252420227088
  6.8054162800000020  5.9213478832670061  4.1870252420227088
 10.2081244200000025  5.8936633818081914  4.1674493433074122
  3.4027081400000001  1.9645544606027308  1.3891497811024709
  0.0000000000000000  0.0000000000000000  0.0000000000000000
