LaBr                                    
   1.00000000000000     
     2.785625    0.000000    0.000000
     1.392812    2.412422    0.000000
     0.000000    0.000000    3.867488
   Na
     4
Direct
  0.000000  0.000000  0.000000
  0.333333  0.333333  0.250000
  0.000000  0.000000  0.500000
  0.666667  0.666667  0.750000
