LaBr                                    
   1.00000000000000     
     6.473169    0.001676    0.001022
     5.467223    3.465745    0.001022
     5.467223    1.587651    3.080708
   Y    C 
     2     1
Direct
  0.739646  0.739646  0.739646
  0.260354  0.260354  0.260354
  0.000000  0.000000  0.000000
