Na1 Cl1                                 
   1.00000000000000     
     4.0246353149000003    0.0000000000000000    0.0000000000000000
     2.0123176575000001    3.4854364237000000    0.0000000000000000
     2.0123176575000001    1.1618121412000000    3.2861009741000000
   Na   Cl
     1     1
Direct
  0.0000000000000000  0.0000000000000000  0.0000000000000000
  0.5000000000000000  0.5000000000000000  0.5000000000000000
 
  0.00000000E+00  0.00000000E+00  0.00000000E+00
  0.00000000E+00  0.00000000E+00  0.00000000E+00
