planar Na
1.0
20.0 0.0 0.0
0.0 20.0 0.0
0.0 0.0 20.0
   Na
     4
Cart
8.586 8.586 10
8.586 11.414 10
11.414 8.586 10
11.414 11.414 10
