Ba1 F2
   1.00000000000000
    20.0000000000000000    0.0000000000000000    0.0000000000000000
     0.0000000000000000   20.0000000000000000    0.0000000000000000
     0.0000000000000000    0.0000000000000000   20.0000000000000000
   Na
     4
Direct
  0.4292999999999978  0.4292999999999978  0.5000000000000000
  0.4292999999999978  0.5707000000000022  0.5000000000000000
  0.5707000000000022  0.4292999999999978  0.5000000000000000
  0.5707000000000022  0.5707000000000022  0.5000000000000000

  0.00000000E+00  0.00000000E+00  0.00000000E+00
  0.00000000E+00  0.00000000E+00  0.00000000E+00
  0.00000000E+00  0.00000000E+00  0.00000000E+00
  0.00000000E+00  0.00000000E+00  0.00000000E+00
